SDVRP instances/custom_instances/p03_9_splitx10_0.vrp
NAME:p03_9_splitx10_
BEST_KNOWN: 0
COMMENT: 0
DIMENSION: 450
CAPACITY: 2000
EDGE_WEIGHT_FORMAT: FUNCTION
EDGE_WEIGHT_TYPE: EXACT_2D
NODE_COORD_SECTION
1 0.00000 0.00000
2 39 17
3 39 17
4 39 17
5 39 17
6 39 17
7 31 -3
8 31 -3
9 31 -3
10 31 -3
11 31 -3
12 31 -3
13 31 -3
14 27 48
15 27 48
16 27 48
17 27 48
18 30 46
19 30 46
20 -44 24
21 -44 24
22 -44 24
23 -44 24
24 -44 24
25 -1 10
26 -1 10
27 -1 10
28 -1 10
29 14 24
30 14 24
31 14 24
32 -32 24
33 -32 24
34 -32 24
35 -32 24
36 -32 24
37 -37 -5
38 -37 -5
39 -37 -5
40 30 -18
41 30 -18
42 30 -18
43 22 -43
44 22 -43
45 22 -43
46 22 -43
47 22 -43
48 36 -19
49 36 -19
50 36 -19
51 36 -19
52 43 32
53 -17 -50
54 -17 -50
55 -17 -50
56 -17 -50
57 -17 -50
58 -10 -15
59 -10 -15
60 -10 -15
61 -10 -15
62 -10 -15
63 -23 -30
64 -23 -30
65 -49 -30
66 -49 -30
67 -49 -30
68 -49 -30
69 -49 -30
70 -25 13
71 -25 13
72 -25 13
73 -25 13
74 -25 13
75 -33 28
76 -33 28
77 -33 28
78 -33 28
79 41 -41
80 41 -41
81 41 -41
82 41 -41
83 45 -5
84 45 -5
85 45 -5
86 45 -5
87 2 -47
88 2 -47
89 2 -47
90 -7 12
91 -7 12
92 47 29
93 47 29
94 47 29
95 47 29
96 47 29
97 35 -12
98 35 -12
99 -12 31
100 -12 31
101 -12 31
102 -12 31
103 -9 38
104 -9 38
105 -9 38
106 -9 38
107 -9 38
108 -9 38
109 -40 -19
110 -40 -19
111 -40 -19
112 -40 -19
113 -40 -19
114 36 7
115 36 7
116 36 7
117 36 7
118 36 7
119 36 7
120 -18 -43
121 -18 -43
122 -18 -43
123 -18 -43
124 -18 -43
125 -18 -43
126 36 10
127 36 10
128 36 10
129 36 10
130 14 -20
131 14 -20
132 14 -20
133 14 -20
134 -45 4
135 -45 4
136 -45 4
137 -45 4
138 -45 4
139 38 -46
140 38 -46
141 38 -46
142 38 -46
143 38 -46
144 38 -46
145 38 -46
146 36 8
147 36 8
148 36 8
149 36 8
150 36 8
151 36 8
152 36 8
153 -12 41
154 -12 41
155 -12 41
156 -39 -45
157 -39 -45
158 -39 -45
159 -14 22
160 -14 22
161 -14 22
162 -14 22
163 -14 22
164 -14 22
165 20 14
166 20 14
167 20 14
168 20 14
169 20 14
170 20 14
171 13 15
172 13 15
173 13 15
174 13 15
175 38 0
176 38 0
177 38 0
178 38 0
179 4 7
180 4 7
181 4 7
182 4 7
183 4 7
184 -49 -46
185 -49 -46
186 -49 -46
187 -49 -46
188 -49 -46
189 -28 36
190 -28 36
191 -28 36
192 -28 36
193 -28 36
194 22 27
195 22 27
196 -20 4
197 -20 4
198 -20 4
199 -20 4
200 -20 4
201 24 -22
202 24 -22
203 24 -22
204 18 -37
205 18 -37
206 18 -37
207 18 -37
208 18 -37
209 18 -37
210 18 -37
211 18 -37
212 -25 32
213 -25 32
214 -25 32
215 -25 32
216 -25 32
217 0 44
218 0 44
219 0 44
220 0 44
221 0 44
222 41 -25
223 41 -25
224 41 -25
225 24 25
226 24 25
227 -25 44
228 -25 44
229 -25 44
230 14 12
231 -3 16
232 -3 16
233 -3 16
234 -3 16
235 -3 16
236 -3 16
237 -19 37
238 -19 37
239 -19 37
240 -19 37
241 -19 37
242 -22 25
243 -22 25
244 -21 -24
245 -21 -24
246 -21 -24
247 -21 -24
248 -21 -24
249 -21 -24
250 -21 -24
251 41 31
252 41 31
253 41 31
254 -29 16
255 -29 16
256 -29 16
257 -29 16
258 -29 16
259 -21 36
260 -21 36
261 -21 36
262 -21 36
263 -21 36
264 -15 40
265 -15 40
266 -12 15
267 -12 15
268 -12 15
269 -12 15
270 -12 15
271 -12 15
272 -3 -1
273 -3 -1
274 -3 -1
275 -3 -1
276 -3 -1
277 42 37
278 42 37
279 42 37
280 -32 17
281 -32 17
282 -32 17
283 48 -15
284 48 -15
285 -7 5
286 -7 5
287 -7 5
288 -7 5
289 -7 5
290 4 4
291 4 4
292 4 4
293 4 4
294 4 4
295 38 49
296 38 49
297 38 49
298 38 49
299 38 49
300 38 49
301 38 49
302 -36 33
303 -36 33
304 -36 33
305 -36 33
306 -36 33
307 -40 -7
308 -40 -7
309 -40 -7
310 -40 -7
311 -40 -7
312 11 -48
313 11 -48
314 11 -48
315 11 -48
316 11 -48
317 11 -48
318 -44 -3
319 -44 -3
320 -44 -3
321 -44 -3
322 -44 -3
323 -44 -3
324 -44 -3
325 -10 10
326 -10 10
327 -10 10
328 17 14
329 17 14
330 17 14
331 17 14
332 -6 -27
333 -6 -27
334 -6 -27
335 -6 -27
336 -6 -27
337 -6 -27
338 -23 15
339 -23 15
340 -23 15
341 -23 15
342 -23 15
343 -23 15
344 12 -16
345 12 -16
346 12 -16
347 12 -16
348 12 -16
349 12 -16
350 44 18
351 44 18
352 44 18
353 39 -2
354 39 -2
355 39 -2
356 39 -2
357 39 -2
358 39 -2
359 39 -2
360 39 -2
361 9 50
362 9 50
363 9 50
364 9 50
365 9 50
366 48 43
367 48 43
368 41 -27
369 41 -27
370 41 -27
371 41 -27
372 41 -27
373 41 -27
374 41 -27
375 18 -3
376 18 -3
377 18 -3
378 18 -3
379 18 -3
380 18 -3
381 -36 25
382 -36 25
383 -36 25
384 -36 25
385 -36 25
386 -36 25
387 16 46
388 16 46
389 16 46
390 16 46
391 16 46
392 16 13
393 16 13
394 16 13
395 16 13
396 16 13
397 16 13
398 17 19
399 17 19
400 17 19
401 17 19
402 17 19
403 -21 -5
404 -21 -5
405 -21 -5
406 -21 -5
407 30 -35
408 30 -35
409 30 -35
410 49 -39
411 49 -39
412 -33 -15
413 -33 -15
414 -33 -15
415 -33 -15
416 -33 -15
417 -33 -15
418 -44 45
419 -44 45
420 -44 45
421 -44 45
422 -44 45
423 -44 45
424 -44 -37
425 -44 -37
426 -44 -37
427 -44 -37
428 -44 -37
429 -44 -37
430 -44 -37
431 9 -14
432 9 -14
433 9 -14
434 45 26
435 45 26
436 45 26
437 45 26
438 8 -27
439 8 -27
440 8 -27
441 -41 -4
442 -41 -4
443 -41 -4
444 -41 -4
445 -41 -4
446 -48 -39
447 -48 -39
448 -48 -39
449 -48 -39
450 -48 -39
DEMAND_SECTION
1 0
2 400
3 400
4 100
5 20
6 20
7 400
8 200
9 20
10 20
11 20
12 20
13 10
14 400
15 400
16 100
17 20
18 200
19 100
20 400
21 400
22 100
23 20
24 10
25 400
26 20
27 20
28 10
29 400
30 200
31 10
32 400
33 100
34 20
35 20
36 20
37 200
38 100
39 20
40 400
41 20
42 20
43 400
44 400
45 20
46 20
47 20
48 200
49 100
50 20
51 10
52 400
53 400
54 200
55 20
56 20
57 10
58 400
59 200
60 20
61 20
62 20
63 400
64 20
65 200
66 20
67 20
68 20
69 10
70 400
71 200
72 20
73 20
74 10
75 400
76 200
77 20
78 10
79 200
80 20
81 20
82 10
83 400
84 20
85 20
86 10
87 400
88 20
89 10
90 400
91 200
92 200
93 100
94 20
95 20
96 10
97 400
98 200
99 200
100 100
101 20
102 10
103 400
104 400
105 100
106 20
107 20
108 20
109 400
110 20
111 20
112 20
113 20
114 400
115 400
116 20
117 20
118 20
119 10
120 400
121 400
122 20
123 20
124 20
125 10
126 200
127 20
128 20
129 10
130 200
131 20
132 20
133 10
134 400
135 400
136 100
137 20
138 20
139 200
140 100
141 20
142 20
143 20
144 20
145 10
146 400
147 200
148 100
149 20
150 20
151 20
152 20
153 400
154 200
155 100
156 400
157 200
158 20
159 400
160 20
161 20
162 20
163 20
164 10
165 400
166 20
167 20
168 20
169 20
170 10
171 400
172 200
173 100
174 10
175 200
176 100
177 20
178 10
179 400
180 400
181 100
182 20
183 20
184 400
185 400
186 20
187 20
188 20
189 400
190 200
191 100
192 20
193 10
194 400
195 200
196 400
197 100
198 20
199 20
200 10
201 400
202 100
203 20
204 400
205 200
206 100
207 20
208 20
209 20
210 20
211 10
212 400
213 100
214 20
215 20
216 10
217 400
218 400
219 20
220 20
221 10
222 400
223 200
224 20
225 400
226 400
227 400
228 400
229 200
230 400
231 400
232 400
233 20
234 20
235 20
236 10
237 200
238 100
239 20
240 20
241 10
242 200
243 100
244 400
245 200
246 100
247 20
248 20
249 20
250 20
251 400
252 20
253 10
254 200
255 100
256 20
257 20
258 10
259 400
260 400
261 20
262 20
263 20
264 400
265 20
266 400
267 200
268 20
269 20
270 20
271 10
272 200
273 20
274 20
275 20
276 20
277 400
278 20
279 10
280 400
281 100
282 20
283 400
284 20
285 200
286 20
287 20
288 20
289 20
290 400
291 200
292 20
293 20
294 10
295 400
296 200
297 100
298 20
299 20
300 20
301 10
302 400
303 100
304 20
305 20
306 10
307 400
308 20
309 20
310 20
311 20
312 400
313 400
314 20
315 20
316 20
317 10
318 400
319 400
320 100
321 20
322 20
323 20
324 10
325 400
326 200
327 100
328 400
329 400
330 20
331 10
332 200
333 100
334 20
335 20
336 20
337 10
338 400
339 400
340 20
341 20
342 20
343 10
344 400
345 200
346 20
347 20
348 20
349 20
350 400
351 400
352 10
353 400
354 200
355 100
356 20
357 20
358 20
359 20
360 10
361 400
362 200
363 100
364 20
365 20
366 400
367 20
368 400
369 400
370 100
371 20
372 20
373 20
374 20
375 200
376 20
377 20
378 20
379 20
380 10
381 400
382 100
383 20
384 20
385 20
386 10
387 400
388 100
389 20
390 20
391 20
392 400
393 100
394 20
395 20
396 20
397 10
398 400
399 400
400 100
401 20
402 20
403 400
404 200
405 100
406 10
407 400
408 100
409 20
410 400
411 10
412 400
413 100
414 20
415 20
416 20
417 10
418 400
419 100
420 20
421 20
422 20
423 20
424 400
425 200
426 100
427 20
428 20
429 20
430 20
431 400
432 100
433 10
434 400
435 100
436 20
437 20
438 200
439 100
440 20
441 200
442 20
443 20
444 20
445 10
446 400
447 400
448 100
449 20
450 20
DEPOT_SECTION
1
-1
EOF