SDVRP instances/custom_instances/p03_9_splitx10_0.sol
449 -5 4 3 2 1 351 350 349 128 126 127 125 -12 8 11 6 9 7 10 352 357 358 353 355 359 354 356 175 174 176 177 -17 18 294 295 300 298 299 296 297 365 366 278 276 277 -27 26 25 24 89 90 324 326 325 285 284 287 -28 13 15 16 14 386 388 387 390 389 -30 29 251 252 250 51 92 94 93 95 91 433 436 434 435 165 167 -36 38 37 440 306 308 307 309 310 109 112 108 110 111 412 411 274 -41 39 40 372 373 367 369 370 371 222 221 223 47 48 49 50 -60 57 124 120 121 122 119 123 54 56 52 53 55 333 336 -61 58 59 247 244 246 249 248 243 245 405 403 404 402 271 272 273 275 -62 63 157 156 155 183 186 184 187 185 428 427 426 -69 73 70 254 256 253 281 279 280 199 196 195 198 197 -72 71 32 35 34 77 76 75 74 302 304 303 305 301 421 420 419 422 418 417 -97 96 84 82 85 83 283 282 202 200 201 -98 99 263 264 152 153 154 105 107 104 106 103 -101 100 236 238 226 228 227 192 188 189 190 191 -102 216 218 217 219 220 363 360 361 362 364 -137 134 136 135 133 320 321 317 318 319 323 322 442 441 443 444 -149 146 147 148 151 150 145 118 116 113 117 114 115 377 374 375 378 379 376 -160 159 161 162 237 240 239 259 261 258 260 262 214 213 212 215 211 241 242 270 269 267 268 -168 169 164 166 225 224 193 194 400 172 173 -180 182 178 181 179 234 233 230 235 231 232 -203 208 206 210 207 205 204 209 44 42 43 45 46 130 131 132 129 348 347 -257 255 20 23 19 21 22 381 380 385 383 382 384 31 33 288 286 -265 266 158 163 337 338 342 340 341 339 -290 289 293 229 327 396 395 393 392 391 394 -292 291 171 170 397 398 399 401 328 329 330 -335 334 331 332 88 87 86 315 314 311 312 313 316 438 437 439 -346 345 343 344 432 430 431 -368 409 410 78 79 80 81 139 143 144 142 140 141 138 406 408 407 -416 413 415 414 67 66 65 64 68 449 447 445 446 448 429 423 425 424 0 





OBJ=
2878.055
BEST_KNOWN=
0.000